p cnf 25 76
1 2 3 4 0
5 6 7 8 0
9 10 11 12 0
13 14 15 16 0
17 18 19 0
20 21 22 0
23 24 25 0
-1 -5 0
-2 -6 0
-3 -7 0
-4 -8 0
-1 -9 0
-2 -10 0
-3 -11 0
-4 -12 0
-1 -13 0
-2 -14 0
-3 -15 0
-4 -16 0
-5 -9 0
-6 -10 0
-7 -11 0
-8 -12 0
-5 -13 0
-6 -14 0
-7 -15 0
-8 -16 0
-9 -13 0
-10 -14 0
-11 -15 0
-12 -16 0
-17 -20 0
-18 -21 0
-19 -22 0
-17 -23 0
-18 -24 0
-19 -25 0
-20 -23 0
-21 -24 0
-22 -25 0
-1 -6 17 0
-1 -7 18 0
-1 -8 19 0
-2 -5 17 0
-2 -7 17 0
-2 -8 18 0
-3 -5 18 0
-3 -6 17 0
-3 -8 17 0
-4 -5 19 0
-4 -6 18 0
-4 -7 17 0
-5 -10 20 0
-5 -11 21 0
-5 -12 22 0
-6 -9 20 0
-6 -11 20 0
-6 -12 21 0
-7 -9 21 0
-7 -10 20 0
-7 -12 20 0
-8 -9 22 0
-8 -10 21 0
-8 -11 20 0
-9 -14 23 0
-9 -15 24 0
-9 -16 25 0
-10 -13 23 0
-10 -15 23 0
-10 -16 24 0
-11 -13 24 0
-11 -14 23 0
-11 -16 23 0
-12 -13 25 0
-12 -14 24 0
-12 -15 23 0
